24
B12H12^2- geometry after DFT optimization
B -1.4504572425 0.0000000022 -0.8963621466
B -1.4504572476 0.0000000022 0.8963621453
B -0.8963621465 -1.4504572472 -0.0000000023
B -0.8963621416 1.4504572435 -0.0000000023
B 0.0000000014 -0.8963621413 -1.4504572443
B 0.0000000014 -0.8963621463 1.4504572481
B 0.0000000014 0.8963621427 -1.4504572398
B 0.0000000014 0.8963621477 1.4504572432
B 0.8963621473 -1.4504572440 -0.0000000023
B 0.8963621425 1.4504572407 -0.0000000023
B 1.4504572403 0.0000000021 -0.8963621437
B 1.4504572452 0.0000000021 0.8963621421
H -2.4961228581 -0.0000000001 -1.5424157299
H -2.4961228587 -0.0000000001 1.5424157306
H -1.5424157306 -2.4961228588 0.0000000001
H -1.5424157299 2.4961228575 0.0000000001
H -0.0000000001 -1.5424157300 -2.4961228577
H -0.0000000001 -1.5424157308 2.4961228590
H -0.0000000001 1.5424157293 -2.4961228569
H -0.0000000001 1.5424157302 2.4961228584
H 1.5424157303 -2.4961228586 0.0000000001
H 1.5424157295 2.4961228571 0.0000000001
H 2.4961228572 -0.0000000001 -1.5424157295
H 2.4961228581 -0.0000000001 1.5424157303
