24
B12H12^2- initial idealized cage geometry
B -1.4319600800 0.0000000000 -0.8850000000
B -1.4319600800 0.0000000000 0.8850000000
B -0.8850000000 -1.4319600800 0.0000000000
B -0.8850000000 1.4319600800 0.0000000000
B 0.0000000000 -0.8850000000 -1.4319600800
B 0.0000000000 -0.8850000000 1.4319600800
B 0.0000000000 0.8850000000 -1.4319600800
B 0.0000000000 0.8850000000 1.4319600800
B 0.8850000000 -1.4319600800 0.0000000000
B 0.8850000000 1.4319600800 0.0000000000
B 1.4319600800 0.0000000000 -0.8850000000
B 1.4319600800 0.0000000000 0.8850000000
H -2.4442345420 0.0000000000 -1.5106200234
H -2.4442345420 0.0000000000 1.5106200234
H -1.5106200234 -2.4442345420 0.0000000000
H -1.5106200234 2.4442345420 0.0000000000
H 0.0000000000 -1.5106200234 -2.4442345420
H 0.0000000000 -1.5106200234 2.4442345420
H 0.0000000000 1.5106200234 -2.4442345420
H 0.0000000000 1.5106200234 2.4442345420
H 1.5106200234 -2.4442345420 0.0000000000
H 1.5106200234 2.4442345420 0.0000000000
H 2.4442345420 0.0000000000 -1.5106200234
H 2.4442345420 0.0000000000 1.5106200234
