40
C20H20 geometry after DFT optimization
C -2.0464750029 -0.0000000000 -0.7815720705
C -2.0464750029 0.0000000000 0.7815720705
C -1.2648068946 -1.2648068946 -1.2648068946
C -1.2648068946 -1.2648068946 1.2648068946
C -1.2648068946 1.2648068946 -1.2648068946
C -1.2648068946 1.2648068946 1.2648068946
C -0.7815720705 -2.0464750029 -0.0000000000
C -0.7815720705 2.0464750029 0.0000000000
C 0.0000000000 -0.7815720705 -2.0464750029
C -0.0000000000 -0.7815720705 2.0464750029
C 0.0000000000 0.7815720705 -2.0464750029
C 0.0000000000 0.7815720705 2.0464750029
C 0.7815720705 -2.0464750029 0.0000000000
C 0.7815720705 2.0464750029 0.0000000000
C 1.2648068946 -1.2648068946 -1.2648068946
C 1.2648068946 -1.2648068946 1.2648068946
C 1.2648068946 1.2648068946 -1.2648068946
C 1.2648068946 1.2648068946 1.2648068946
C 2.0464750029 0.0000000000 -0.7815720705
C 2.0464750029 0.0000000000 0.7815720705
H -3.0779469030 0.0000000000 -1.1757064420
H -3.0779469030 0.0000000000 1.1757064420
H -1.9024055023 -1.9024055023 -1.9024055023
H -1.9024055023 -1.9024055023 1.9024055023
H -1.9024055023 1.9024055023 -1.9024055023
H -1.9024055023 1.9024055023 1.9024055023
H -1.1757064420 -3.0779469030 0.0000000000
H -1.1757064420 3.0779469030 -0.0000000000
H 0.0000000000 -1.1757064420 -3.0779469030
H 0.0000000000 -1.1757064420 3.0779469030
H 0.0000000000 1.1757064420 -3.0779469030
H -0.0000000000 1.1757064420 3.0779469030
H 1.1757064420 -3.0779469030 0.0000000000
H 1.1757064420 3.0779469030 -0.0000000000
H 1.9024055023 -1.9024055023 -1.9024055023
H 1.9024055023 -1.9024055023 1.9024055023
H 1.9024055023 1.9024055023 -1.9024055023
H 1.9024055023 1.9024055023 1.9024055023
H 3.0779469030 -0.0000000000 -1.1757064420
H 3.0779469030 -0.0000000000 1.1757064420
