40
C20H20 initial idealized cage geometry
C -2.0158861713 0.0000000000 -0.7700000000
C -2.0158861713 0.0000000000 0.7700000000
C -1.2458861713 -1.2458861713 -1.2458861713
C -1.2458861713 -1.2458861713 1.2458861713
C -1.2458861713 1.2458861713 -1.2458861713
C -1.2458861713 1.2458861713 1.2458861713
C -0.7700000000 -2.0158861713 0.0000000000
C -0.7700000000 2.0158861713 0.0000000000
C 0.0000000000 -0.7700000000 -2.0158861713
C 0.0000000000 -0.7700000000 2.0158861713
C 0.0000000000 0.7700000000 -2.0158861713
C 0.0000000000 0.7700000000 2.0158861713
C 0.7700000000 -2.0158861713 0.0000000000
C 0.7700000000 2.0158861713 0.0000000000
C 1.2458861713 -1.2458861713 -1.2458861713
C 1.2458861713 -1.2458861713 1.2458861713
C 1.2458861713 1.2458861713 -1.2458861713
C 1.2458861713 1.2458861713 1.2458861713
C 2.0158861713 0.0000000000 -0.7700000000
C 2.0158861713 0.0000000000 0.7700000000
H -3.0341340426 0.0000000000 -1.1589360779
H -3.0341340426 0.0000000000 1.1589360779
H -1.8751979648 -1.8751979648 -1.8751979648
H -1.8751979648 -1.8751979648 1.8751979648
H -1.8751979648 1.8751979648 -1.8751979648
H -1.8751979648 1.8751979648 1.8751979648
H -1.1589360779 -3.0341340426 0.0000000000
H -1.1589360779 3.0341340426 0.0000000000
H 0.0000000000 -1.1589360779 -3.0341340426
H 0.0000000000 -1.1589360779 3.0341340426
H 0.0000000000 1.1589360779 -3.0341340426
H 0.0000000000 1.1589360779 3.0341340426
H 1.1589360779 -3.0341340426 0.0000000000
H 1.1589360779 3.0341340426 0.0000000000
H 1.8751979648 -1.8751979648 -1.8751979648
H 1.8751979648 -1.8751979648 1.8751979648
H 1.8751979648 1.8751979648 -1.8751979648
H 1.8751979648 1.8751979648 1.8751979648
H 3.0341340426 0.0000000000 -1.1589360779
H 3.0341340426 0.0000000000 1.1589360779
